Reading model...
...model read.
creating competitive generators file...
...competitive generators recorded.
Loading data...
.. real-time data read.
Compiling instance...
0.0
0.0
0.0
0.0
...instance created.
Creating Offer Mitigation (model will solve as dispatch if TRUE)...
...storage offer mitigation file created
Converting model to MPEC...
...converted
NOTE: initial MIP solve with only storage competitive to get feasible solution
Solving...

Welcome to IBM(R) ILOG(R) CPLEX(R) Interactive Optimizer 12.9.0.0
  with Simplex, Mixed Integer & Barrier Optimizers
5725-A06 5725-A29 5724-Y48 5724-Y49 5724-Y54 5724-Y55 5655-Y21
Copyright IBM Corp. 1988, 2019.  All Rights Reserved.

Type 'help' for a list of available commands.
Type 'help' followed by a command name for more
information on commands.

CPLEX> Logfile 'cplex.log' closed.
Logfile 'C:\Users\llavin\Desktop\test826\logs\tmp6qf0wziw.cplex.log' open.
CPLEX> New value for parallel optimization mode: -1
CPLEX> New value for mixed integer optimality gap tolerance: 0.05
CPLEX> New value for emphasis for MIP optimization: 1
CPLEX> New value for integrality tolerance: 1e-12
CPLEX> New value for deterministic time limit in ticks: 250000
CPLEX> Problem 'C:\Users\llavin\Desktop\test826\logs\tmpo5rrtdb3.pyomo.lp' read.
Read time = 0.53 sec. (28.53 ticks)
CPLEX> Problem name         : C:\Users\llavin\Desktop\test826\logs\tmpo5rrtdb3.pyomo.lp
Objective sense      : Maximize
Variables            :  107783  [Nneg: 1,  Box: 44058,  Free: 8928,
                                 Binary: 54796]
Objective nonzeros   :   18372
Linear constraints   :  246901  [Less: 82864,  Greater: 118424,  Equal: 45613]
  Nonzeros           :  619167
  RHS nonzeros       :  135873

Variables            : Min LB: -5000.000        Max UB: 1000000.       
Objective nonzeros   : Min   : 0.008333333      Max   : 208.3333       
Linear constraints   :
  Nonzeros           : Min   : 0.008333333      Max   : 1000000.       
  RHS nonzeros       : Min   : 0.008333333      Max   : 1000000.       
CPLEX> CPXPARAM_Parallel                                -1
CPXPARAM_Emphasis_MIP                            1
CPXPARAM_DetTimeLimit                            250000
CPXPARAM_MIP_Tolerances_MIPGap                   0.050000000000000003
CPXPARAM_MIP_Tolerances_Integrality              9.9999999999999998e-13
Tried aggregator 3 times.
MIP Presolve eliminated 176655 rows and 37151 columns.
MIP Presolve added 7065 rows and 0 columns.
MIP Presolve modified 51886 coefficients.
Aggregator did 26094 substitutions.
Reduced MIP has 51217 rows, 43664 columns, and 149443 nonzeros.
Reduced MIP has 17290 binaries, 0 generals, 0 SOSs, and 0 indicators.
Presolve time = 0.61 sec. (349.55 ticks)
Probing fixed 838 vars, tightened 13710 bounds.
Probing time = 0.41 sec. (18.61 ticks)
Tried aggregator 2 times.
MIP Presolve eliminated 1891 rows and 1700 columns.
MIP Presolve modified 6486 coefficients.
Aggregator did 56 substitutions.
Reduced MIP has 49270 rows, 41908 columns, and 139320 nonzeros.
Reduced MIP has 16447 binaries, 0 generals, 0 SOSs, and 0 indicators.
Presolve time = 0.28 sec. (257.00 ticks)
Probing fixed 6 vars, tightened 540 bounds.
Probing time = 0.55 sec. (20.86 ticks)
Clique table members: 86361.
MIP emphasis: integer feasibility.
MIP search method: dynamic search.
Parallel mode: opportunistic, using up to 32 threads.
Root relaxation solution time = 1.09 sec. (1926.62 ticks)

        Nodes                                         Cuts/
   Node  Left     Objective  IInf  Best Integer    Best Bound    ItCnt     Gap

      0     0        0.0000   120                      0.0000    10035         
*     0+    0                            0.0000        0.0000             0.00%
      0     0        cutoff              0.0000        0.0000    10080    0.00%
Elapsed time = 4.34 sec. (3808.63 ticks, tree = 0.01 MB, solutions = 1)

Root node processing (before b&c):
  Real time             =    4.38 sec. (3812.31 ticks)
Parallel b&c, 32 threads:
  Real time             =    0.00 sec. (0.00 ticks)
  Sync time (average)   =    0.00 sec.
  Wait time (average)   =    0.00 sec.
                          ------------
Total (root+branch&cut) =    4.38 sec. (3812.31 ticks)

Solution pool: 1 solution saved.

MIP - Integer optimal solution:  Objective =  2.9058355722e-10
Solution time =    4.39 sec.  Iterations = 10080  Nodes = 0
Deterministic time = 3812.62 ticks  (868.48 ticks/sec)

CPLEX> Incumbent solution written to file 'C:\Users\llavin\Desktop\test826\logs\tmpv8a_bade.cplex.sol'.
CPLEX> NOTE: no warmstart specified for MIP iteration, default behavior is true
NOTE: resolving with all competitive generators using storage-only solution to warmstart
Solving...

Welcome to IBM(R) ILOG(R) CPLEX(R) Interactive Optimizer 12.9.0.0
  with Simplex, Mixed Integer & Barrier Optimizers
5725-A06 5725-A29 5724-Y48 5724-Y49 5724-Y54 5724-Y55 5655-Y21
Copyright IBM Corp. 1988, 2019.  All Rights Reserved.

Type 'help' for a list of available commands.
Type 'help' followed by a command name for more
information on commands.

CPLEX> Logfile 'cplex.log' closed.
Logfile 'C:\Users\llavin\Desktop\test826\logs\tmpyu9gk3lr.cplex.log' open.
CPLEX> New value for parallel optimization mode: -1
CPLEX> New value for mixed integer optimality gap tolerance: 0.05
CPLEX> New value for emphasis for MIP optimization: 1
CPLEX> New value for integrality tolerance: 1e-12
CPLEX> New value for deterministic time limit in ticks: 250000
CPLEX> Problem 'C:\Users\llavin\Desktop\test826\logs\tmpx41avj7e.pyomo.lp' read.
Read time = 0.53 sec. (28.58 ticks)
CPLEX> MIP start file 'C:\Users\llavin\Desktop\test826\logs\tmp4x7x58wh.cplex.mst' read.
CPLEX> Problem name         : C:\Users\llavin\Desktop\test826\logs\tmpx41avj7e.pyomo.lp
Objective sense      : Maximize
Variables            :  109223  [Nneg: 1,  Box: 45498,  Free: 8928,
                                 Binary: 54796]
Objective nonzeros   :   19764
Linear constraints   :  246901  [Less: 82864,  Greater: 118424,  Equal: 45613]
  Nonzeros           :  619167
  RHS nonzeros       :  135873

Variables            : Min LB: -5000.000        Max UB: 1000000.       
Objective nonzeros   : Min   : 0.008333333      Max   : 208.3333       
Linear constraints   :
  Nonzeros           : Min   : 0.008333333      Max   : 1000000.       
  RHS nonzeros       : Min   : 0.008333333      Max   : 1000000.       
CPLEX> CPXPARAM_Parallel                                -1
CPXPARAM_Emphasis_MIP                            1
CPXPARAM_DetTimeLimit                            250000
CPXPARAM_MIP_Tolerances_MIPGap                   0.050000000000000003
CPXPARAM_MIP_Tolerances_Integrality              9.9999999999999998e-13
Warning:  No solution found from 1 MIP starts.
Retaining values of one MIP start for possible repair.
Tried aggregator 3 times.
MIP Presolve eliminated 176655 rows and 38591 columns.
MIP Presolve added 7065 rows and 0 columns.
MIP Presolve modified 51886 coefficients.
Aggregator did 26094 substitutions.
Reduced MIP has 51217 rows, 43664 columns, and 149443 nonzeros.
Reduced MIP has 17290 binaries, 0 generals, 0 SOSs, and 0 indicators.
Presolve time = 0.61 sec. (350.30 ticks)
Probing fixed 838 vars, tightened 13710 bounds.
Probing time = 0.41 sec. (18.61 ticks)
Tried aggregator 2 times.
MIP Presolve eliminated 1891 rows and 1700 columns.
MIP Presolve modified 6486 coefficients.
Aggregator did 56 substitutions.
Reduced MIP has 49270 rows, 41908 columns, and 139320 nonzeros.
Reduced MIP has 16447 binaries, 0 generals, 0 SOSs, and 0 indicators.
Presolve time = 0.27 sec. (257.01 ticks)
Probing fixed 6 vars, tightened 540 bounds.
Probing time = 0.56 sec. (20.86 ticks)
Clique table members: 86361.
MIP emphasis: integer feasibility.
MIP search method: dynamic search.
Parallel mode: opportunistic, using up to 32 threads.
Root relaxation solution time = 1.27 sec. (2189.11 ticks)

        Nodes                                         Cuts/
   Node  Left     Objective  IInf  Best Integer    Best Bound    ItCnt     Gap

      0     0    13059.4425   454                  13059.4425    11667         
      0     0    11875.8673   327                   Cuts: 200    12046         
      0     0    11855.7884   318                Flowcuts: 70    12086         
      0     0    11855.7884   317                    Cuts: 15    12096         
Repair heuristic found nothing.
      0    22    11378.9515   313                 Impl Bds: 3    12241         
Elapsed time = 9.59 sec. (4941.76 ticks, tree = 0.02 MB, solutions = 0)
    311   171    11106.4435   274                  11622.7132    13179         
    675   142    11125.1337   248                  11622.7132    12962         
   1115   531     9144.5913   159                  11622.7132    15470         
   1638   873     8302.3130   132                  11622.7132    17859         
   2173  1272     8567.5096   156                  11622.7132    20421         
   2518  1155     8418.1016   137                  11622.7132    19779         
   2925  1442     7043.4082   122                  11622.7132    21278         
*  3268+ 2329                            0.0000    11622.7132              --- 
   3651  1889     1757.2875    78        0.0000    11622.7132    24044     --- 
   5524  1279    infeasible              0.0000    11622.7132   114597     --- 
Elapsed time = 29.09 sec. (8001.44 ticks, tree = 10.17 MB, solutions = 72)
   6957  1737        0.0000    50        0.0000     9286.1959   107181     --- 
   7216   209    infeasible              0.0000     9286.1959   124667     --- 

Implied bound cuts applied:  3
Flow cuts applied:  259

Root node processing (before b&c):
  Real time             =    6.27 sec. (4963.47 ticks)
Parallel b&c, 32 threads:
  Real time             =   26.89 sec. (5916.65 ticks)
  Sync time (average)   =    3.00 sec.
  Wait time (average)   =    0.00 sec.
                          ------------
Total (root+branch&cut) =   33.16 sec. (10880.12 ticks)

Solution pool: 139 solutions saved.

MIP - Integer optimal, tolerance (0.05/1e-06):  Objective =  2.3510438041e-10
Current MIP best bound =  3.1517544130e-10 (gap = 8.00711e-11, 0.00%)
Solution time =   33.19 sec.  Iterations = 124832  Nodes = 7257 (236)
Deterministic time = 10880.43 ticks  (327.84 ticks/sec)

CPLEX> Incumbent solution written to file 'C:\Users\llavin\Desktop\test826\logs\tmp6yytwtba.cplex.sol'.
CPLEX> Exporting results... 
